(declare-const c_0 Real)
(declare-const c_1 Real)
(declare-const c_2 Real)
(declare-const c_3 Real)
(declare-const c_4 Real)
(declare-const c_5 Real)
(declare-const c_6 Real)
(declare-const c_7 Real)
(declare-const c_8 Real)
(declare-const c_9 Real)
(declare-const c_10 Real)
(declare-const c_11 Real)
(declare-const c_12 Real)
(declare-const c_13 Real)
(declare-const c_14 Real)
(declare-const c_15 Real)
(declare-const c_16 Real)
(declare-const c_17 Real)
(declare-const c_18 Real)
(declare-const c_19 Real)
(declare-const c_20 Real)
(declare-const c_21 Real)
(declare-const c_22 Real)
(declare-const c_23 Real)
(declare-const c_24 Real)
(declare-const c_25 Real)
(declare-const c_26 Real)
(declare-const c_27 Real)
(declare-const c_28 Real)
(declare-const c_29 Real)
(declare-const s_0 Real)
(declare-const s_1 Real)
(declare-const s_2 Real)
(declare-const s_3 Real)
(declare-const s_4 Real)
(declare-const s_5 Real)
(declare-const s_6 Real)
(declare-const s_7 Real)
(declare-const s_8 Real)
(declare-const s_9 Real)
(declare-const s_10 Real)
(declare-const s_11 Real)
(declare-const s_12 Real)
(declare-const s_13 Real)
(declare-const s_14 Real)
(declare-const s_15 Real)
(declare-const s_16 Real)
(declare-const s_17 Real)
(declare-const s_18 Real)
(declare-const s_19 Real)
(declare-const s_20 Real)
(declare-const s_21 Real)
(declare-const s_22 Real)
(declare-const s_23 Real)
(declare-const s_24 Real)
(declare-const s_25 Real)
(declare-const s_26 Real)
(declare-const s_27 Real)
(declare-const s_28 Real)
(declare-const s_29 Real)
(assert (forall ((maxId Real) (tmp Real) (id Real) ) (=> (and (>= (+ (* 1024 1) (* 1 maxId ) ) 0) (>= (+ (* 1023 1) (* (- 1) maxId ) ) 0) (>= (+ (* 1024 1) (* 1 tmp ) ) 0) (>= (+ (* 1023 1) (* (- 1) tmp ) ) 0) (>= (+ (* 1024 1) (* 1 id ) ) 0) (>= (+ (* 1023 1) (* (- 1) id ) ) 0) ) (>= (+ (* 1 id maxId s_2 ) (* 1 id s_1 ) (* 1 id s_3 tmp ) (* 1 id id s_4 ) (* 1 maxId s_5 ) (* 1 maxId s_6 tmp ) (* 1 maxId maxId s_7 ) (* 1 s_0 ) (* 1 s_8 tmp ) (* 1 s_9 tmp tmp ) ) 0) )))
(assert (forall ((maxId Real) (tmp Real) (id Real) ) (=> (and (>= (+ (* 1024 1) (* 1 maxId ) ) 0) (>= (+ (* 1023 1) (* (- 1) maxId ) ) 0) (>= (+ (* 1024 1) (* 1 tmp ) ) 0) (>= (+ (* 1023 1) (* (- 1) tmp ) ) 0) (>= (+ (* 1024 1) (* 1 id ) ) 0) (>= (+ (* 1023 1) (* (- 1) id ) ) 0) ) (>= (+ (* 1 c_0 ) (* 1 c_1 id ) (* 1 c_2 id maxId ) (* 1 c_3 id tmp ) (* 1 c_4 id id ) (* 1 c_5 maxId ) (* 1 c_6 maxId tmp ) (* 1 c_7 maxId maxId ) (* 1 c_8 tmp ) (* 1 c_9 tmp tmp ) ) 0) )))
(assert (forall ((maxId Real) (tmp Real) (id Real) ) (=> (and (>= (* 1 id ) 0) (>= (+ (* (- 1) 1) (* (- 1) id ) (* 1 maxId ) ) 0) (>= (+ (* 1024 1) (* 1 maxId ) ) 0) (>= (+ (* 1024 1) (* 1 tmp ) ) 0) (>= (+ (* 1024 1) (* 1 id ) ) 0) (>= (+ (* 1023 1) (* (- 1) id ) ) 0) (>= (+ (* 1023 1) (* (- 1) tmp ) ) 0) (>= (+ (* 1023 1) (* (- 1) maxId ) ) 0) (>= (+ (* 1 id maxId s_2 ) (* 1 id s_1 ) (* 1 id s_3 tmp ) (* 1 id id s_4 ) (* 1 maxId s_5 ) (* 1 maxId s_6 tmp ) (* 1 maxId maxId s_7 ) (* 1 s_0 ) (* 1 s_8 tmp ) (* 1 s_9 tmp tmp ) ) 0) ) (>= (+ (* 1 id maxId s_12 ) (* 1 id maxId s_16 ) (* 1 id s_11 ) (* 1 id s_13 ) (* 1 id s_18 ) (* 2 id s_19 ) (* 1 id id s_13 ) (* 1 id id s_14 ) (* 1 id id s_19 ) (* 1 maxId s_15 ) (* 1 maxId s_16 ) (* 1 maxId maxId s_17 ) (* 1 s_10 ) (* 1 s_18 ) (* 1 s_19 ) ) 0) )))
(assert (forall ((maxId Real) (tmp Real) (id Real) ) (=> (and (>= (* 1 id ) 0) (>= (+ (* (- 1) 1) (* (- 1) id ) (* 1 maxId ) ) 0) (>= (+ (* 1024 1) (* 1 maxId ) ) 0) (>= (+ (* 1024 1) (* 1 tmp ) ) 0) (>= (+ (* 1024 1) (* 1 id ) ) 0) (>= (+ (* 1023 1) (* (- 1) id ) ) 0) (>= (+ (* 1023 1) (* (- 1) tmp ) ) 0) (>= (+ (* 1023 1) (* (- 1) maxId ) ) 0) (>= (+ (* 1 id maxId s_2 ) (* 1 id s_1 ) (* 1 id s_3 tmp ) (* 1 id id s_4 ) (* 1 maxId s_5 ) (* 1 maxId s_6 tmp ) (* 1 maxId maxId s_7 ) (* 1 s_0 ) (* 1 s_8 tmp ) (* 1 s_9 tmp tmp ) ) 0) ) (>= (+ (* 1 c_10 ) (* 1 c_11 id ) (* 1 c_12 id maxId ) (* 1 c_13 id ) (* 1 c_13 id id ) (* 1 c_14 id id ) (* 1 c_15 maxId ) (* 1 c_16 id maxId ) (* 1 c_16 maxId ) (* 1 c_17 maxId maxId ) (* 1 c_18 ) (* 1 c_18 id ) (* 1 c_19 ) (* 2 c_19 id ) (* 1 c_19 id id ) ) 0) )))
(assert (forall ((maxId Real) (tmp Real) (id Real) ) (=> (and (>= (* 1 id ) 0) (>= (+ (* (- 1) 1) (* (- 1) id ) (* 1 maxId ) ) 0) (>= (+ (* 1024 1) (* 1 maxId ) ) 0) (>= (+ (* 1024 1) (* 1 tmp ) ) 0) (>= (+ (* 1024 1) (* 1 id ) ) 0) (>= (+ (* 1023 1) (* (- 1) id ) ) 0) (>= (+ (* 1023 1) (* (- 1) tmp ) ) 0) (>= (+ (* 1023 1) (* (- 1) maxId ) ) 0) (>= (+ (* 1 id maxId s_2 ) (* 1 id s_1 ) (* 1 id s_3 tmp ) (* 1 id id s_4 ) (* 1 maxId s_5 ) (* 1 maxId s_6 tmp ) (* 1 maxId maxId s_7 ) (* 1 s_0 ) (* 1 s_8 tmp ) (* 1 s_9 tmp tmp ) ) 0) ) (>= (+ (* (- 1) 1) (* 1 c_0 ) (* 1 c_1 id ) (* (- 1) c_10 ) (* (- 1) c_11 id ) (* (- 1) c_12 id maxId ) (* (- 1) c_13 id ) (* (- 1) c_13 id id ) (* (- 1) c_14 id id ) (* (- 1) c_15 maxId ) (* (- 1) c_16 id maxId ) (* (- 1) c_16 maxId ) (* (- 1) c_17 maxId maxId ) (* (- 1) c_18 ) (* (- 1) c_18 id ) (* (- 1) c_19 ) (* (- 2) c_19 id ) (* (- 1) c_19 id id ) (* 1 c_2 id maxId ) (* 1 c_3 id tmp ) (* 1 c_4 id id ) (* 1 c_5 maxId ) (* 1 c_6 maxId tmp ) (* 1 c_7 maxId maxId ) (* 1 c_8 tmp ) (* 1 c_9 tmp tmp ) ) 0) )))
(assert (forall ((maxId Real) (tmp Real) (id Real) ) (=> (and (>= (+ (* (- 1) 1) (* (- 1) id ) ) 0) (>= (+ (* 1024 1) (* 1 maxId ) ) 0) (>= (+ (* 1024 1) (* 1 tmp ) ) 0) (>= (+ (* 1024 1) (* 1 id ) ) 0) (>= (+ (* 1023 1) (* (- 1) id ) ) 0) (>= (+ (* 1023 1) (* (- 1) tmp ) ) 0) (>= (+ (* 1023 1) (* (- 1) maxId ) ) 0) (>= (+ (* 1 id maxId s_2 ) (* 1 id s_1 ) (* 1 id s_3 tmp ) (* 1 id id s_4 ) (* 1 maxId s_5 ) (* 1 maxId s_6 tmp ) (* 1 maxId maxId s_7 ) (* 1 s_0 ) (* 1 s_8 tmp ) (* 1 s_9 tmp tmp ) ) 0) ) (>= (+ (* 1 id maxId s_22 ) (* 1 id s_21 ) (* 1 id s_23 tmp ) (* 1 id id s_24 ) (* 1 maxId s_25 ) (* 1 maxId s_26 tmp ) (* 1 maxId maxId s_27 ) (* 1 s_20 ) (* 1 s_28 tmp ) (* 1 s_29 tmp tmp ) ) 0) )))
(assert (forall ((maxId Real) (tmp Real) (id Real) ) (=> (and (>= (+ (* (- 1) 1) (* (- 1) id ) ) 0) (>= (+ (* 1024 1) (* 1 maxId ) ) 0) (>= (+ (* 1024 1) (* 1 tmp ) ) 0) (>= (+ (* 1024 1) (* 1 id ) ) 0) (>= (+ (* 1023 1) (* (- 1) id ) ) 0) (>= (+ (* 1023 1) (* (- 1) tmp ) ) 0) (>= (+ (* 1023 1) (* (- 1) maxId ) ) 0) (>= (+ (* 1 id maxId s_2 ) (* 1 id s_1 ) (* 1 id s_3 tmp ) (* 1 id id s_4 ) (* 1 maxId s_5 ) (* 1 maxId s_6 tmp ) (* 1 maxId maxId s_7 ) (* 1 s_0 ) (* 1 s_8 tmp ) (* 1 s_9 tmp tmp ) ) 0) ) (>= (+ (* 1 c_20 ) (* 1 c_21 id ) (* 1 c_22 id maxId ) (* 1 c_23 id tmp ) (* 1 c_24 id id ) (* 1 c_25 maxId ) (* 1 c_26 maxId tmp ) (* 1 c_27 maxId maxId ) (* 1 c_28 tmp ) (* 1 c_29 tmp tmp ) ) 0) )))
(assert (forall ((maxId Real) (tmp Real) (id Real) ) (=> (and (>= (+ (* 1 id ) (* (- 1) maxId ) ) 0) (>= (+ (* 1024 1) (* 1 maxId ) ) 0) (>= (+ (* 1024 1) (* 1 tmp ) ) 0) (>= (+ (* 1024 1) (* 1 id ) ) 0) (>= (+ (* 1023 1) (* (- 1) id ) ) 0) (>= (+ (* 1023 1) (* (- 1) tmp ) ) 0) (>= (+ (* 1023 1) (* (- 1) maxId ) ) 0) (>= (+ (* 1 id maxId s_2 ) (* 1 id s_1 ) (* 1 id s_3 tmp ) (* 1 id id s_4 ) (* 1 maxId s_5 ) (* 1 maxId s_6 tmp ) (* 1 maxId maxId s_7 ) (* 1 s_0 ) (* 1 s_8 tmp ) (* 1 s_9 tmp tmp ) ) 0) ) (>= (+ (* 1 id maxId s_22 ) (* 1 id s_21 ) (* 1 id s_23 tmp ) (* 1 id id s_24 ) (* 1 maxId s_25 ) (* 1 maxId s_26 tmp ) (* 1 maxId maxId s_27 ) (* 1 s_20 ) (* 1 s_28 tmp ) (* 1 s_29 tmp tmp ) ) 0) )))
(assert (forall ((maxId Real) (tmp Real) (id Real) ) (=> (and (>= (+ (* 1 id ) (* (- 1) maxId ) ) 0) (>= (+ (* 1024 1) (* 1 maxId ) ) 0) (>= (+ (* 1024 1) (* 1 tmp ) ) 0) (>= (+ (* 1024 1) (* 1 id ) ) 0) (>= (+ (* 1023 1) (* (- 1) id ) ) 0) (>= (+ (* 1023 1) (* (- 1) tmp ) ) 0) (>= (+ (* 1023 1) (* (- 1) maxId ) ) 0) (>= (+ (* 1 id maxId s_2 ) (* 1 id s_1 ) (* 1 id s_3 tmp ) (* 1 id id s_4 ) (* 1 maxId s_5 ) (* 1 maxId s_6 tmp ) (* 1 maxId maxId s_7 ) (* 1 s_0 ) (* 1 s_8 tmp ) (* 1 s_9 tmp tmp ) ) 0) ) (>= (+ (* 1 c_20 ) (* 1 c_21 id ) (* 1 c_22 id maxId ) (* 1 c_23 id tmp ) (* 1 c_24 id id ) (* 1 c_25 maxId ) (* 1 c_26 maxId tmp ) (* 1 c_27 maxId maxId ) (* 1 c_28 tmp ) (* 1 c_29 tmp tmp ) ) 0) )))
(assert (forall ((maxId Real) (tmp Real) (id Real) ) (=> (and (>= (+ (* 1 maxId ) (* (- 1) tmp ) ) 0) (>= (+ (* (- 1) 1) (* 1 id ) (* (- 1) tmp ) ) 0) (>= (* 1 id ) 0) (>= (+ (* (- 1) 1) (* (- 1) id ) (* 1 maxId ) ) 0) (>= (+ (* 1023 1) (* (- 1) maxId ) ) 0) (>= (+ (* 1 id maxId s_12 ) (* 1 id s_11 ) (* 1 id s_13 tmp ) (* 1 id id s_14 ) (* 1 maxId s_15 ) (* 1 maxId s_16 tmp ) (* 1 maxId maxId s_17 ) (* 1 s_10 ) (* 1 s_18 tmp ) (* 1 s_19 tmp tmp ) ) 0) ) (>= (+ (* 1 id maxId s_12 ) (* 1 id s_11 ) (* 1 id s_13 ) (* 1 id s_13 tmp ) (* 1 id id s_14 ) (* 1 maxId s_15 ) (* 1 maxId s_16 ) (* 1 maxId s_16 tmp ) (* 1 maxId maxId s_17 ) (* 1 s_10 ) (* 1 s_18 ) (* 1 s_18 tmp ) (* 1 s_19 ) (* 2 s_19 tmp ) (* 1 s_19 tmp tmp ) ) 0) )))
(assert (forall ((maxId Real) (tmp Real) (id Real) ) (=> (and (>= (+ (* 1 maxId ) (* (- 1) tmp ) ) 0) (>= (+ (* (- 1) 1) (* 1 id ) (* (- 1) tmp ) ) 0) (>= (* 1 id ) 0) (>= (+ (* (- 1) 1) (* (- 1) id ) (* 1 maxId ) ) 0) (>= (+ (* 1023 1) (* (- 1) maxId ) ) 0) (>= (+ (* 1 id maxId s_12 ) (* 1 id s_11 ) (* 1 id s_13 tmp ) (* 1 id id s_14 ) (* 1 maxId s_15 ) (* 1 maxId s_16 tmp ) (* 1 maxId maxId s_17 ) (* 1 s_10 ) (* 1 s_18 tmp ) (* 1 s_19 tmp tmp ) ) 0) ) (>= (+ (* 1 c_10 ) (* 1 c_11 id ) (* 1 c_12 id maxId ) (* 1 c_13 id ) (* 1 c_13 id tmp ) (* 1 c_14 id id ) (* 1 c_15 maxId ) (* 1 c_16 maxId ) (* 1 c_16 maxId tmp ) (* 1 c_17 maxId maxId ) (* 1 c_18 ) (* 1 c_18 tmp ) (* 1 c_19 ) (* 2 c_19 tmp ) (* 1 c_19 tmp tmp ) ) 0) )))
(assert (forall ((maxId Real) (tmp Real) (id Real) ) (=> (and (>= (+ (* 1 maxId ) (* (- 1) tmp ) ) 0) (>= (+ (* (- 1) 1) (* 1 id ) (* (- 1) tmp ) ) 0) (>= (* 1 id ) 0) (>= (+ (* (- 1) 1) (* (- 1) id ) (* 1 maxId ) ) 0) (>= (+ (* 1023 1) (* (- 1) maxId ) ) 0) (>= (+ (* 1 id maxId s_12 ) (* 1 id s_11 ) (* 1 id s_13 tmp ) (* 1 id id s_14 ) (* 1 maxId s_15 ) (* 1 maxId s_16 tmp ) (* 1 maxId maxId s_17 ) (* 1 s_10 ) (* 1 s_18 tmp ) (* 1 s_19 tmp tmp ) ) 0) ) (>= (+ (* (- 1) 1) (* (- 1) c_13 id ) (* (- 1) c_16 maxId ) (* (- 1) c_18 ) (* (- 1) c_19 ) (* (- 2) c_19 tmp ) ) 0) )))
(assert (forall ((maxId Real) (tmp Real) (id Real) ) (=> (and (>= (+ (* (- 1) 1) (* (- 1) maxId ) (* 1 tmp ) ) 0) (>= (+ (* (- 1) 1) (* 1 id ) (* (- 1) tmp ) ) 0) (>= (* 1 id ) 0) (>= (+ (* (- 1) 1) (* (- 1) id ) (* 1 maxId ) ) 0) (>= (+ (* 1023 1) (* (- 1) maxId ) ) 0) (>= (+ (* 1 id maxId s_12 ) (* 1 id s_11 ) (* 1 id s_13 tmp ) (* 1 id id s_14 ) (* 1 maxId s_15 ) (* 1 maxId s_16 tmp ) (* 1 maxId maxId s_17 ) (* 1 s_10 ) (* 1 s_18 tmp ) (* 1 s_19 tmp tmp ) ) 0) ) (>= (+ (* 1 id maxId s_12 ) (* 1 id s_11 ) (* 1 id id s_14 ) (* 1 maxId s_15 ) (* 1 maxId maxId s_17 ) (* 1 s_10 ) ) 0) )))
(assert (forall ((maxId Real) (tmp Real) (id Real) ) (=> (and (>= (+ (* (- 1) 1) (* (- 1) maxId ) (* 1 tmp ) ) 0) (>= (+ (* (- 1) 1) (* 1 id ) (* (- 1) tmp ) ) 0) (>= (* 1 id ) 0) (>= (+ (* (- 1) 1) (* (- 1) id ) (* 1 maxId ) ) 0) (>= (+ (* 1023 1) (* (- 1) maxId ) ) 0) (>= (+ (* 1 id maxId s_12 ) (* 1 id s_11 ) (* 1 id s_13 tmp ) (* 1 id id s_14 ) (* 1 maxId s_15 ) (* 1 maxId s_16 tmp ) (* 1 maxId maxId s_17 ) (* 1 s_10 ) (* 1 s_18 tmp ) (* 1 s_19 tmp tmp ) ) 0) ) (>= (+ (* 1 c_10 ) (* 1 c_11 id ) (* 1 c_12 id maxId ) (* 1 c_14 id id ) (* 1 c_15 maxId ) (* 1 c_17 maxId maxId ) ) 0) )))
(assert (forall ((maxId Real) (tmp Real) (id Real) ) (=> (and (>= (+ (* (- 1) 1) (* (- 1) maxId ) (* 1 tmp ) ) 0) (>= (+ (* (- 1) 1) (* 1 id ) (* (- 1) tmp ) ) 0) (>= (* 1 id ) 0) (>= (+ (* (- 1) 1) (* (- 1) id ) (* 1 maxId ) ) 0) (>= (+ (* 1023 1) (* (- 1) maxId ) ) 0) (>= (+ (* 1 id maxId s_12 ) (* 1 id s_11 ) (* 1 id s_13 tmp ) (* 1 id id s_14 ) (* 1 maxId s_15 ) (* 1 maxId s_16 tmp ) (* 1 maxId maxId s_17 ) (* 1 s_10 ) (* 1 s_18 tmp ) (* 1 s_19 tmp tmp ) ) 0) ) (>= (+ (* (- 1) 1) (* 1 c_13 id tmp ) (* 1 c_16 maxId tmp ) (* 1 c_18 tmp ) (* 1 c_19 tmp tmp ) ) 0) )))
(assert (forall ((maxId Real) (tmp Real) (id Real) ) (=> (and (>= (+ (* 1 maxId ) (* (- 1) tmp ) ) 0) (>= (+ (* (- 1) 1) (* (- 1) id ) (* 1 tmp ) ) 0) (>= (* 1 id ) 0) (>= (+ (* (- 1) 1) (* (- 1) id ) (* 1 maxId ) ) 0) (>= (+ (* 1023 1) (* (- 1) maxId ) ) 0) (>= (+ (* 1 id maxId s_12 ) (* 1 id s_11 ) (* 1 id s_13 tmp ) (* 1 id id s_14 ) (* 1 maxId s_15 ) (* 1 maxId s_16 tmp ) (* 1 maxId maxId s_17 ) (* 1 s_10 ) (* 1 s_18 tmp ) (* 1 s_19 tmp tmp ) ) 0) ) (>= (+ (* 1 id maxId s_12 ) (* 1 id s_11 ) (* 1 id s_13 ) (* 1 id s_13 tmp ) (* 1 id id s_14 ) (* 1 maxId s_15 ) (* 1 maxId s_16 ) (* 1 maxId s_16 tmp ) (* 1 maxId maxId s_17 ) (* 1 s_10 ) (* 1 s_18 ) (* 1 s_18 tmp ) (* 1 s_19 ) (* 2 s_19 tmp ) (* 1 s_19 tmp tmp ) ) 0) )))
(assert (forall ((maxId Real) (tmp Real) (id Real) ) (=> (and (>= (+ (* 1 maxId ) (* (- 1) tmp ) ) 0) (>= (+ (* (- 1) 1) (* (- 1) id ) (* 1 tmp ) ) 0) (>= (* 1 id ) 0) (>= (+ (* (- 1) 1) (* (- 1) id ) (* 1 maxId ) ) 0) (>= (+ (* 1023 1) (* (- 1) maxId ) ) 0) (>= (+ (* 1 id maxId s_12 ) (* 1 id s_11 ) (* 1 id s_13 tmp ) (* 1 id id s_14 ) (* 1 maxId s_15 ) (* 1 maxId s_16 tmp ) (* 1 maxId maxId s_17 ) (* 1 s_10 ) (* 1 s_18 tmp ) (* 1 s_19 tmp tmp ) ) 0) ) (>= (+ (* 1 c_10 ) (* 1 c_11 id ) (* 1 c_12 id maxId ) (* 1 c_13 id ) (* 1 c_13 id tmp ) (* 1 c_14 id id ) (* 1 c_15 maxId ) (* 1 c_16 maxId ) (* 1 c_16 maxId tmp ) (* 1 c_17 maxId maxId ) (* 1 c_18 ) (* 1 c_18 tmp ) (* 1 c_19 ) (* 2 c_19 tmp ) (* 1 c_19 tmp tmp ) ) 0) )))
(assert (forall ((maxId Real) (tmp Real) (id Real) ) (=> (and (>= (+ (* 1 maxId ) (* (- 1) tmp ) ) 0) (>= (+ (* (- 1) 1) (* (- 1) id ) (* 1 tmp ) ) 0) (>= (* 1 id ) 0) (>= (+ (* (- 1) 1) (* (- 1) id ) (* 1 maxId ) ) 0) (>= (+ (* 1023 1) (* (- 1) maxId ) ) 0) (>= (+ (* 1 id maxId s_12 ) (* 1 id s_11 ) (* 1 id s_13 tmp ) (* 1 id id s_14 ) (* 1 maxId s_15 ) (* 1 maxId s_16 tmp ) (* 1 maxId maxId s_17 ) (* 1 s_10 ) (* 1 s_18 tmp ) (* 1 s_19 tmp tmp ) ) 0) ) (>= (+ (* (- 1) 1) (* (- 1) c_13 id ) (* (- 1) c_16 maxId ) (* (- 1) c_18 ) (* (- 1) c_19 ) (* (- 2) c_19 tmp ) ) 0) )))
(assert (forall ((maxId Real) (tmp Real) (id Real) ) (=> (and (>= (+ (* (- 1) 1) (* (- 1) maxId ) (* 1 tmp ) ) 0) (>= (+ (* (- 1) 1) (* (- 1) id ) (* 1 tmp ) ) 0) (>= (* 1 id ) 0) (>= (+ (* (- 1) 1) (* (- 1) id ) (* 1 maxId ) ) 0) (>= (+ (* 1023 1) (* (- 1) maxId ) ) 0) (>= (+ (* 1 id maxId s_12 ) (* 1 id s_11 ) (* 1 id s_13 tmp ) (* 1 id id s_14 ) (* 1 maxId s_15 ) (* 1 maxId s_16 tmp ) (* 1 maxId maxId s_17 ) (* 1 s_10 ) (* 1 s_18 tmp ) (* 1 s_19 tmp tmp ) ) 0) ) (>= (+ (* 1 id maxId s_12 ) (* 1 id s_11 ) (* 1 id id s_14 ) (* 1 maxId s_15 ) (* 1 maxId maxId s_17 ) (* 1 s_10 ) ) 0) )))
(assert (forall ((maxId Real) (tmp Real) (id Real) ) (=> (and (>= (+ (* (- 1) 1) (* (- 1) maxId ) (* 1 tmp ) ) 0) (>= (+ (* (- 1) 1) (* (- 1) id ) (* 1 tmp ) ) 0) (>= (* 1 id ) 0) (>= (+ (* (- 1) 1) (* (- 1) id ) (* 1 maxId ) ) 0) (>= (+ (* 1023 1) (* (- 1) maxId ) ) 0) (>= (+ (* 1 id maxId s_12 ) (* 1 id s_11 ) (* 1 id s_13 tmp ) (* 1 id id s_14 ) (* 1 maxId s_15 ) (* 1 maxId s_16 tmp ) (* 1 maxId maxId s_17 ) (* 1 s_10 ) (* 1 s_18 tmp ) (* 1 s_19 tmp tmp ) ) 0) ) (>= (+ (* 1 c_10 ) (* 1 c_11 id ) (* 1 c_12 id maxId ) (* 1 c_14 id id ) (* 1 c_15 maxId ) (* 1 c_17 maxId maxId ) ) 0) )))
(assert (forall ((maxId Real) (tmp Real) (id Real) ) (=> (and (>= (+ (* (- 1) 1) (* (- 1) maxId ) (* 1 tmp ) ) 0) (>= (+ (* (- 1) 1) (* (- 1) id ) (* 1 tmp ) ) 0) (>= (* 1 id ) 0) (>= (+ (* (- 1) 1) (* (- 1) id ) (* 1 maxId ) ) 0) (>= (+ (* 1023 1) (* (- 1) maxId ) ) 0) (>= (+ (* 1 id maxId s_12 ) (* 1 id s_11 ) (* 1 id s_13 tmp ) (* 1 id id s_14 ) (* 1 maxId s_15 ) (* 1 maxId s_16 tmp ) (* 1 maxId maxId s_17 ) (* 1 s_10 ) (* 1 s_18 tmp ) (* 1 s_19 tmp tmp ) ) 0) ) (>= (+ (* (- 1) 1) (* 1 c_13 id tmp ) (* 1 c_16 maxId tmp ) (* 1 c_18 tmp ) (* 1 c_19 tmp tmp ) ) 0) )))
(assert (forall ((maxId Real) (tmp Real) (id Real) ) (=> (and (>= (+ (* (- 1) id ) (* 1 tmp ) ) 0) (>= (+ (* 1 id ) (* (- 1) tmp ) ) 0) (>= (* 1 id ) 0) (>= (+ (* (- 1) 1) (* (- 1) id ) (* 1 maxId ) ) 0) (>= (+ (* 1023 1) (* (- 1) maxId ) ) 0) (>= (+ (* 1 id maxId s_12 ) (* 1 id s_11 ) (* 1 id s_13 tmp ) (* 1 id id s_14 ) (* 1 maxId s_15 ) (* 1 maxId s_16 tmp ) (* 1 maxId maxId s_17 ) (* 1 s_10 ) (* 1 s_18 tmp ) (* 1 s_19 tmp tmp ) ) 0) ) (>= (+ (* 1 id maxId s_22 ) (* 1 id s_21 ) (* 1 id s_23 tmp ) (* 1 id id s_24 ) (* 1 maxId s_25 ) (* 1 maxId s_26 tmp ) (* 1 maxId maxId s_27 ) (* 1 s_20 ) (* 1 s_28 tmp ) (* 1 s_29 tmp tmp ) ) 0) )))
(assert (forall ((maxId Real) (tmp Real) (id Real) ) (=> (and (>= (+ (* (- 1) id ) (* 1 tmp ) ) 0) (>= (+ (* 1 id ) (* (- 1) tmp ) ) 0) (>= (* 1 id ) 0) (>= (+ (* (- 1) 1) (* (- 1) id ) (* 1 maxId ) ) 0) (>= (+ (* 1023 1) (* (- 1) maxId ) ) 0) (>= (+ (* 1 id maxId s_12 ) (* 1 id s_11 ) (* 1 id s_13 tmp ) (* 1 id id s_14 ) (* 1 maxId s_15 ) (* 1 maxId s_16 tmp ) (* 1 maxId maxId s_17 ) (* 1 s_10 ) (* 1 s_18 tmp ) (* 1 s_19 tmp tmp ) ) 0) ) (>= (+ (* 1 c_20 ) (* 1 c_21 id ) (* 1 c_22 id maxId ) (* 1 c_23 id tmp ) (* 1 c_24 id id ) (* 1 c_25 maxId ) (* 1 c_26 maxId tmp ) (* 1 c_27 maxId maxId ) (* 1 c_28 tmp ) (* 1 c_29 tmp tmp ) ) 0) )))
(assert (forall ((maxId Real) (tmp Real) (id Real) ) (=> (and (>= (* 1 id ) 0) (>= (+ (* (- 1) 1) (* (- 1) id ) (* 1 maxId ) ) 0) (>= (+ (* 1023 1) (* (- 1) maxId ) ) 0) (>= (+ (* 1 id maxId s_12 ) (* 1 id s_11 ) (* 1 id s_13 tmp ) (* 1 id id s_14 ) (* 1 maxId s_15 ) (* 1 maxId s_16 tmp ) (* 1 maxId maxId s_17 ) (* 1 s_10 ) (* 1 s_18 tmp ) (* 1 s_19 tmp tmp ) ) 0) ) (>= (+ (* 1 id maxId s_22 ) (* 1 id s_21 ) (* 1 id s_23 tmp ) (* 1 id id s_24 ) (* 1 maxId s_25 ) (* 1 maxId s_26 tmp ) (* 1 maxId maxId s_27 ) (* 1 s_20 ) (* 1 s_28 tmp ) (* 1 s_29 tmp tmp ) ) 0) )))
(assert (forall ((maxId Real) (tmp Real) (id Real) ) (=> (and (>= (* 1 id ) 0) (>= (+ (* (- 1) 1) (* (- 1) id ) (* 1 maxId ) ) 0) (>= (+ (* 1023 1) (* (- 1) maxId ) ) 0) (>= (+ (* 1 id maxId s_12 ) (* 1 id s_11 ) (* 1 id s_13 tmp ) (* 1 id id s_14 ) (* 1 maxId s_15 ) (* 1 maxId s_16 tmp ) (* 1 maxId maxId s_17 ) (* 1 s_10 ) (* 1 s_18 tmp ) (* 1 s_19 tmp tmp ) ) 0) ) (>= (+ (* 1 c_20 ) (* 1 c_21 id ) (* 1 c_22 id maxId ) (* 1 c_23 id tmp ) (* 1 c_24 id id ) (* 1 c_25 maxId ) (* 1 c_26 maxId tmp ) (* 1 c_27 maxId maxId ) (* 1 c_28 tmp ) (* 1 c_29 tmp tmp ) ) 0) )))
(assert (forall ((maxId Real) (tmp Real) (id Real) ) (=> (and (>= (+ (* (- 1) id ) (* 1 tmp ) ) 0) (>= (* 1 id ) 0) (>= (+ (* (- 1) 1) (* (- 1) id ) (* 1 maxId ) ) 0) (>= (+ (* 1023 1) (* (- 1) maxId ) ) 0) (>= (+ (* 1 id maxId s_12 ) (* 1 id s_11 ) (* 1 id s_13 tmp ) (* 1 id id s_14 ) (* 1 maxId s_15 ) (* 1 maxId s_16 tmp ) (* 1 maxId maxId s_17 ) (* 1 s_10 ) (* 1 s_18 tmp ) (* 1 s_19 tmp tmp ) ) 0) ) (>= (+ (* 1 id maxId s_22 ) (* 1 id s_21 ) (* 1 id s_23 tmp ) (* 1 id id s_24 ) (* 1 maxId s_25 ) (* 1 maxId s_26 tmp ) (* 1 maxId maxId s_27 ) (* 1 s_20 ) (* 1 s_28 tmp ) (* 1 s_29 tmp tmp ) ) 0) )))
(assert (forall ((maxId Real) (tmp Real) (id Real) ) (=> (and (>= (+ (* (- 1) id ) (* 1 tmp ) ) 0) (>= (* 1 id ) 0) (>= (+ (* (- 1) 1) (* (- 1) id ) (* 1 maxId ) ) 0) (>= (+ (* 1023 1) (* (- 1) maxId ) ) 0) (>= (+ (* 1 id maxId s_12 ) (* 1 id s_11 ) (* 1 id s_13 tmp ) (* 1 id id s_14 ) (* 1 maxId s_15 ) (* 1 maxId s_16 tmp ) (* 1 maxId maxId s_17 ) (* 1 s_10 ) (* 1 s_18 tmp ) (* 1 s_19 tmp tmp ) ) 0) ) (>= (+ (* 1 c_20 ) (* 1 c_21 id ) (* 1 c_22 id maxId ) (* 1 c_23 id tmp ) (* 1 c_24 id id ) (* 1 c_25 maxId ) (* 1 c_26 maxId tmp ) (* 1 c_27 maxId maxId ) (* 1 c_28 tmp ) (* 1 c_29 tmp tmp ) ) 0) )))
(assert (forall ((maxId Real) (tmp Real) (id Real) ) (=> (and (>= (* 1 id ) 0) (>= (+ (* (- 1) 1) (* (- 1) id ) (* 1 maxId ) ) 0) (>= (+ (* 1023 1) (* (- 1) maxId ) ) 0) (>= (+ (* 1 id maxId s_12 ) (* 1 id s_11 ) (* 1 id s_13 tmp ) (* 1 id id s_14 ) (* 1 maxId s_15 ) (* 1 maxId s_16 tmp ) (* 1 maxId maxId s_17 ) (* 1 s_10 ) (* 1 s_18 tmp ) (* 1 s_19 tmp tmp ) ) 0) ) (>= (+ (* 1 id maxId s_22 ) (* 1 id s_21 ) (* 1 id s_23 tmp ) (* 1 id id s_24 ) (* 1 maxId s_25 ) (* 1 maxId s_26 tmp ) (* 1 maxId maxId s_27 ) (* 1 s_20 ) (* 1 s_28 tmp ) (* 1 s_29 tmp tmp ) ) 0) )))
(assert (forall ((maxId Real) (tmp Real) (id Real) ) (=> (and (>= (* 1 id ) 0) (>= (+ (* (- 1) 1) (* (- 1) id ) (* 1 maxId ) ) 0) (>= (+ (* 1023 1) (* (- 1) maxId ) ) 0) (>= (+ (* 1 id maxId s_12 ) (* 1 id s_11 ) (* 1 id s_13 tmp ) (* 1 id id s_14 ) (* 1 maxId s_15 ) (* 1 maxId s_16 tmp ) (* 1 maxId maxId s_17 ) (* 1 s_10 ) (* 1 s_18 tmp ) (* 1 s_19 tmp tmp ) ) 0) ) (>= (+ (* 1 c_20 ) (* 1 c_21 id ) (* 1 c_22 id maxId ) (* 1 c_23 id tmp ) (* 1 c_24 id id ) (* 1 c_25 maxId ) (* 1 c_26 maxId tmp ) (* 1 c_27 maxId maxId ) (* 1 c_28 tmp ) (* 1 c_29 tmp tmp ) ) 0) )))

(check-sat)
(get-model)
